20
444
391
true
0.25
38 11 16 27 21 32 24 37 41 44 27 7 10 16 24 24 27 24 22 23
-17 -40 59 75 -70 50 41 76 -67 -57 96 19 -95 6 82 20 -16 -56 57 -42
0 0 0 0 0 0 0 43 0 0 0 0 0 33 51 0 0 0 0 0
0 0 0 0 0 0 -32 0 0 0 75 0 0 0 0 0 0 0 82
0 0 0 0 0 0 -50 0 0 0 58 0 0 0 -51 -8 -63 0
0 0 0 0 0 0 -61 0 0 -33 51 0 -50 0 87 0 0
0 0 0 0 0 0 0 0 0 0 -87 0 0 0 0 3
0 0 0 0 0 0 0 0 -17 0 0 0 0 -65 0
0 0 0 0 66 0 0 0 0 0 0 0 0 0
0 0 -27 4 -87 0 0 0 0 0 0 0 0
0 30 0 0 -74 0 0 0 -99 0 0 82
0 0 0 0 0 0 0 0 -83 0 0
0 0 0 0 33 0 0 -64 0 0
0 0 -75 0 69 0 0 0 0
0 -65 0 0 0 0 0 -18
0 0 0 0 -6 0 0
0 0 0 0 0 0
0 0 0 0 0
0 0 0 55
0 0 0
0 0
0 0 81 0 0 13 0 0 0 0 0 0 0 -13 -10 -64 0 0 87
0 0 0 0 -46 18 0 -2 0 47 94 0 0 0 -43 -37 -100 0
0 0 0 0 0 -39 0 0 0 98 -96 0 0 0 0 0 0
0 0 0 67 0 -51 0 0 21 0 -68 0 0 0 0 71
0 2 -62 -73 0 0 0 -29 0 29 0 0 0 0 -18
0 0 0 0 73 0 0 0 0 0 -57 0 0 35
0 0 0 -25 0 0 0 0 -75 0 0 0 64
0 0 0 0 0 0 0 0 0 0 9 55
0 0 0 0 0 57 0 0 0 0 0
0 0 -9 5 -46 0 0 0 12 76
0 0 0 0 0 0 0 0 0
0 0 95 0 0 0 0 0
0 0 0 39 0 0 0
0 0 58 67 0 0
0 0 0 0 0
0 0 0 0
0 0 0
0 -76
0
0 0 -46 0 0 0 31 0 29 0 0 0 0 0 0 0 0 -2
0 0 0 0 0 -9 0 -25 45 0 0 0 0 0 0 0 -23
0 -67 0 -73 0 0 59 0 0 0 0 0 0 0 0 0
0 0 0 0 0 74 0 -56 0 0 0 0 0 0 0
0 0 0 -5 0 0 0 3 0 98 0 0 0 0
0 0 -44 73 -9 0 0 0 6 0 0 -27 23
0 0 0 98 0 -98 0 0 0 0 96 0
0 0 -14 -64 -57 0 0 0 0 0 0
0 0 0 0 0 47 54 -83 0 0
0 0 0 97 0 0 0 0 -40
0 48 71 0 0 21 0 0
0 0 -19 0 -92 51 0
0 0 -64 59 0 -99
0 0 0 0 -38
0 0 8 0
0 0 0
0 -63
0
0 0 -38 65 0 55 0 0 0 0 0 0 0 14 0 -98 0
0 0 0 0 0 14 0 -77 -49 0 0 0 83 0 0 0
0 0 0 0 0 0 95 0 26 -49 51 0 0 0 -66
0 29 -65 0 0 0 0 0 0 0 0 0 0 0
0 0 0 -38 0 72 0 -21 0 0 0 0 4
0 0 0 0 -13 0 0 0 0 37 0 0
0 0 -43 -12 0 0 0 0 0 0 0
0 34 27 0 -86 0 0 0 0 0
0 0 0 0 0 0 0 0 -48
0 0 0 0 63 0 -20 0
0 0 0 0 0 0 0
0 0 0 0 0 -26
0 0 26 0 0
0 0 0 77
0 0 0
0 -56
0
0 0 0 71 0 0 0 0 29 70 -1 0 0 0 0 0
0 -68 0 0 0 0 5 17 0 -96 -9 30 0 0 11
0 0 0 0 0 0 33 0 55 0 0 0 0 0
0 0 0 0 0 0 8 0 0 -90 0 0 0
0 0 0 -32 0 0 0 0 0 0 0 -64
0 96 0 0 0 11 0 0 0 90 0
0 0 0 0 0 0 0 31 -15 0
0 0 0 0 0 0 0 0 0
0 -8 0 0 0 0 0 0
0 0 0 0 0 0 0
0 -20 0 0 0 0
0 0 0 0 0
0 8 0 0
0 25 35
0 0
0
0 0 0 0 0 0 0 0 0 0 0 0 0 -46 0
0 0 0 0 0 38 0 0 0 0 0 0 -78 0
0 0 0 0 0 0 46 0 -51 0 0 -34 0
0 14 0 0 1 0 0 0 0 -15 0 -77
0 0 0 0 0 0 0 0 0 0 -44
0 0 0 77 0 0 0 -49 0 0
0 0 89 0 0 0 0 0 0
0 0 0 25 0 0 2 0
0 0 0 0 0 0 -91
0 0 0 0 0 0
0 0 0 0 0
0 0 0 0
0 0 0
0 0
0
0 0 75 0 0 0 0 0 0 0 0 -33 0 0
0 0 0 0 -8 0 0 0 0 0 0 0 0
0 -37 73 0 0 0 0 0 0 0 0 0
0 35 0 -98 0 0 0 0 0 0 0
0 0 0 0 0 0 0 0 -89 0
0 -97 0 -94 0 10 -30 0 74
0 0 -70 0 0 0 0 0
0 0 0 0 0 63 0
0 0 0 -43 0 0
0 70 0 0 0
0 0 0 0
0 -71 0
0 0
0
0 -50 0 0 -45 0 0 0 -77 0 0 64 -56
0 0 0 0 0 0 0 0 0 0 0 0
0 0 0 0 0 0 0 0 54 0 -73
0 0 0 0 0 58 0 0 0 0
0 0 0 0 0 0 0 -89 0
0 0 0 0 -90 0 0 0
0 0 0 0 0 0 0
0 16 0 0 0 77
0 0 0 0 0
0 0 0 0
0 -95 0
0 49
0
0 0 0 22 -49 0 0 0 0 57 0 88
0 0 0 0 0 -80 0 -77 0 0 36
0 0 0 0 65 0 0 0 0 0
0 0 0 0 0 0 -48 0 0
0 0 0 0 0 0 0 0
0 0 0 0 0 0 -90
0 58 0 0 27 0
0 0 85 0 0
0 -98 0 0
0 0 -96
0 0
0
0 0 0 0 -41 0 0 0 0 0 0
0 0 0 0 0 0 0 -99 0 0
0 -10 -19 0 0 0 89 0 0
0 81 0 11 0 0 0 0
0 0 0 0 0 0 0
0 0 -82 -38 0 0
0 0 0 0 0
0 0 0 71
0 0 74
0 45
0
0 0 -46 0 80 0 0 0 23 -61
0 0 -21 0 0 0 0 0 0
0 -30 0 -42 79 0 61 0
0 0 0 0 0 0 0
0 0 0 44 0 -90
0 0 -73 0 -55
0 22 -76 0
0 -61 0
0 -5
0
0 0 -24 28 0 0 0 0 0
0 -34 0 0 0 0 0 36
0 0 0 0 0 42 0
0 0 -34 0 -51 57
0 0 0 0 0
0 0 0 0
0 0 0
0 -11
0
0 96 0 0 0 54 0 0
0 0 90 0 -7 0 93
0 0 0 0 51 0
0 0 0 0 -74
0 0 0 -72
0 79 0
0 -52
0
0 0 0 10 0 0 0
0 -18 0 0 0 76
0 0 0 0 0
0 0 0 0
0 0 -15
0 0
0
0 -29 26 0 0 0
0 0 0 -51 0
0 -24 0 -21
0 63 0
0 0
0
0 -21 83 -33 0
0 0 0 0
0 0 0
0 0
0
0 0 0 0
0 0 0
0 0
0
0 -69 0
0 0
0
0 0
0
0
344 153 -145 321 -294 -639 17 -363 -6 -784 574 282 135 101 94 68 -371 -293 -577 -126
9.052631578947368 13.909090909090908 -9.0625 11.88888888888889 -14.0 -19.96875 0.7083333333333334 -9.81081081081081 -0.14634146341463414 -17.818181818181817 21.25925925925926 40.285714285714285 13.5 6.3125 3.9166666666666665 2.8333333333333335 -13.74074074074074 -12.208333333333334 -26.227272727272727 -5.478260869565218
